Figure: large_2
File Number: 20
Nodes: 300
Edges: 22327
Max Generations: 1000
Population Size: 100
Mutation Rate: 0.01
Colors Used: 163
Runtime: 13.97

Generation,Average Fitness,Best Fitness
0,137.06,105
1,134.82,105
2,130.36,102
3,127.85,102
4,125.55,102
5,124.31,102
6,123.54,102
7,121.38,101
8,118.36,96
9,115.47,91
10,112.37,89
11,108.72,89
12,105.98,86
13,100.49,85
14,97.47,83
15,95.56,81
16,93.45,77
17,91.69,77
18,90.06,77
19,87.6,76
20,85.96,73
21,84.59,73
22,82.71,73
23,81.6,69
24,81.65,69
25,80.42,69
26,80.63,69
27,79.69,66
28,79.17,66
29,78.99,66
30,78.14,64
31,76.85,64
32,75.01,60
33,74.63,60
34,72.19,60
35,71.3,58
36,70.63,58
37,70.88,57
38,70.32,57
39,69.42,55
40,68.58,54
41,66.27,53
42,65.26,52
43,62.99,51
44,61.38,49
45,61.0,49
46,59.99,49
47,58.92,49
48,59.05,49
49,58.24,48
50,57.82,48
51,56.9,48
52,56.41,40
53,55.17,40
54,54.7,40
55,55.08,40
56,54.65,40
57,52.87,40
58,51.98,40
59,50.76,40
60,49.67,39
61,48.98,39
62,48.64,39
63,48.63,37
64,47.93,37
65,47.85,37
66,47.13,37
67,46.39,37
68,46.0,37
69,45.08,37
70,44.89,35
71,44.87,33
72,44.51,33
73,44.52,33
74,44.18,33
75,44.84,33
76,44.97,33
77,44.03,33
78,43.67,33
79,43.62,32
80,43.35,32
81,43.32,30
82,42.45,30
83,41.86,30
84,41.8,30
85,41.78,30
86,41.24,30
87,40.52,30
88,40.15,30
89,40.18,28
90,39.25,28
91,39.03,28
92,38.69,28
93,38.03,28
94,38.24,28
95,38.8,28
96,38.86,28
97,38.58,28
98,37.74,28
99,37.54,27
100,37.33,27
101,37.18,27
102,36.93,22
103,37.0,22
104,36.56,22
105,35.83,22
106,34.76,22
107,34.58,22
108,33.83,22
109,34.13,22
110,33.26,22
111,32.7,22
112,32.96,21
113,33.14,21
114,32.44,21
115,31.95,21
116,31.0,21
117,30.82,21
118,31.03,21
119,31.48,21
120,32.15,21
121,31.72,21
122,31.64,21
123,31.11,21
124,31.59,21
125,31.0,21
126,31.59,21
127,31.49,21
128,31.53,21
129,31.21,21
130,31.68,21
131,31.46,21
132,31.37,21
133,31.54,21
134,31.97,21
135,31.86,21
136,31.35,21
137,31.03,21
138,30.74,21
139,30.43,21
140,30.74,21
141,30.85,21
142,31.06,21
143,31.96,21
144,31.11,21
145,31.41,21
146,32.03,21
147,31.8,21
148,31.61,21
149,31.92,21
150,31.45,20
151,31.25,20
152,30.84,20
153,29.67,18
154,29.27,18
155,28.53,18
156,28.87,18
157,28.18,18
158,28.05,18
159,27.56,18
160,28.16,18
161,28.7,18
162,28.93,18
163,28.98,18
164,28.94,18
165,28.28,18
166,27.33,18
167,26.94,18
168,26.61,18
169,26.92,17
170,26.74,17
171,26.29,17
172,26.88,17
173,26.06,17
174,26.26,17
175,26.22,17
176,26.18,17
177,25.69,17
178,25.71,17
179,25.92,17
180,25.91,17
181,25.47,15
182,26.05,15
183,26.37,15
184,26.79,15
185,26.59,15
186,26.76,15
187,26.67,15
188,26.46,15
189,26.44,15
190,26.47,15
191,26.72,15
192,26.42,15
193,25.86,15
194,26.03,15
195,26.38,15
196,26.52,15
197,26.91,15
198,27.11,15
199,26.93,15
200,26.56,15
201,25.58,15
202,24.86,15
203,23.96,15
204,23.81,15
205,23.93,15
206,23.71,14
207,23.81,12
208,23.32,12
209,23.31,12
210,22.37,11
211,21.37,11
212,21.44,11
213,21.0,11
214,21.15,11
215,21.16,10
216,21.7,10
217,22.19,10
218,22.37,8
219,22.57,8
220,23.03,8
221,23.54,8
222,23.27,8
223,23.37,8
224,23.62,8
225,23.39,8
226,23.32,8
227,21.3,8
228,20.85,8
229,20.62,8
230,19.76,8
231,19.49,8
232,19.02,8
233,18.82,8
234,18.78,8
235,19.19,8
236,19.3,8
237,18.84,8
238,18.16,8
239,17.8,8
240,18.07,8
241,19.0,8
242,20.27,8
243,20.5,8
244,20.58,8
245,20.02,8
246,19.86,8
247,20.37,8
248,20.19,8
249,20.26,8
250,20.75,8
251,20.52,8
252,20.85,8
253,20.53,8
254,20.87,8
255,21.4,8
256,21.2,8
257,21.63,8
258,21.14,8
259,20.57,7
260,19.86,7
261,19.11,7
262,18.54,7
263,18.13,7
264,18.24,7
265,18.31,7
266,18.34,7
267,18.51,7
268,18.56,7
269,19.33,7
270,19.31,7
271,18.99,7
272,18.78,7
273,18.63,7
274,18.54,7
275,18.85,7
276,18.64,7
277,18.62,7
278,18.64,7
279,19.53,7
280,19.39,7
281,19.9,7
282,19.74,7
283,19.94,7
284,20.12,7
285,20.32,7
286,20.85,7
287,20.59,7
288,20.38,7
289,20.02,7
290,19.47,7
291,19.07,7
292,19.62,7
293,20.2,7
294,20.21,7
295,19.55,7
296,18.83,7
297,19.08,7
298,19.58,7
299,20.0,7
300,18.75,7
301,18.42,7
302,19.25,7
303,19.11,7
304,18.53,7
305,18.8,7
306,19.19,7
307,19.31,7
308,19.7,7
309,19.39,6
310,18.89,6
311,19.86,6
312,20.03,6
313,19.22,6
314,18.69,6
315,18.43,6
316,18.73,6
317,18.42,6
318,19.01,6
319,19.62,6
320,18.83,6
321,18.04,6
322,18.41,6
323,18.36,6
324,19.23,6
325,19.14,6
326,18.44,6
327,17.8,6
328,17.51,6
329,17.42,6
330,17.12,6
331,16.81,6
332,15.65,6
333,16.49,6
334,17.0,6
335,16.75,6
336,16.87,6
337,16.73,6
338,17.05,6
339,17.27,6
340,17.44,6
341,17.96,6
342,18.24,6
343,17.73,6
344,17.94,6
345,16.94,6
346,16.75,6
347,17.84,6
348,17.41,6
349,17.46,6
350,17.33,6
351,17.74,6
352,17.81,6
353,17.53,6
354,16.46,6
355,16.07,6
356,15.91,6
357,15.76,6
358,15.5,6
359,15.6,6
360,15.7,6
361,15.51,6
362,15.6,6
363,16.56,6
364,16.99,6
365,17.61,6
366,16.71,6
367,16.11,6
368,16.23,6
369,17.01,6
370,17.04,6
371,18.03,6
372,17.78,6
373,17.5,6
374,17.55,6
375,17.52,6
376,17.48,6
377,17.24,6
378,17.32,6
379,17.25,6
380,17.27,6
381,17.4,6
382,17.74,6
383,17.81,6
384,17.86,6
385,17.77,6
386,17.51,6
387,17.24,6
388,16.71,6
389,17.4,6
390,17.46,6
391,17.3,6
392,17.49,6
393,18.45,6
394,18.95,6
395,18.9,6
396,18.96,6
397,18.73,6
398,18.37,6
399,17.39,6
400,16.73,6
401,16.31,6
402,16.1,6
403,16.21,6
404,17.0,6
405,16.94,6
406,17.5,6
407,17.3,6
408,16.52,6
409,16.95,6
410,16.6,6
411,16.57,6
412,16.5,6
413,17.31,6
414,17.44,6
415,17.23,6
416,17.66,6
417,17.9,6
418,17.53,6
419,17.17,6
420,16.95,6
421,17.21,6
422,17.89,6
423,17.8,6
424,17.29,6
425,17.54,6
426,18.04,6
427,17.64,6
428,18.17,6
429,18.46,6
430,17.88,6
431,17.77,6
432,17.4,6
433,17.12,6
434,18.02,6
435,17.54,6
436,18.4,6
437,18.89,6
438,18.4,6
439,18.11,6
440,17.97,6
441,18.35,6
442,19.09,6
443,18.96,6
444,19.58,6
445,19.63,6
446,19.51,6
447,19.4,6
448,19.21,6
449,18.32,6
450,17.73,6
451,16.89,6
452,15.82,5
453,15.01,5
454,14.92,5
455,14.84,5
456,14.56,5
457,14.35,5
458,13.91,5
459,14.1,5
460,14.33,5
461,15.21,5
462,15.11,5
463,15.82,5
464,16.53,5
465,17.02,5
466,16.85,5
467,17.16,5
468,17.07,5
469,17.17,5
470,16.67,5
471,16.25,5
472,16.81,5
473,16.32,5
474,16.29,5
475,16.35,5
476,16.62,5
477,17.63,5
478,17.8,5
479,17.79,5
480,17.27,5
481,17.11,5
482,17.75,5
483,17.59,5
484,17.57,5
485,18.19,5
486,18.31,5
487,18.46,5
488,18.15,5
489,17.88,5
490,17.72,5
491,16.87,5
492,16.06,5
493,16.36,5
494,16.54,5
495,16.79,5
496,16.47,5
497,16.38,5
498,16.05,5
499,16.47,5
500,16.49,5
501,15.75,5
502,16.38,5
503,16.05,5
504,15.85,5
505,14.9,5
506,15.41,5
507,15.57,5
508,15.0,5
509,14.4,5
510,14.91,5
511,15.17,5
512,15.52,5
513,15.54,5
514,15.57,5
515,16.26,5
516,16.8,5
517,17.15,5
518,16.72,5
519,16.9,5
520,17.44,5
521,17.59,5
522,17.34,5
523,16.35,5
524,16.94,5
525,17.14,5
526,16.89,5
527,17.17,5
528,16.95,5
529,18.03,5
530,17.94,5
531,16.73,5
532,17.95,5
533,17.56,5
534,17.98,5
535,17.94,5
536,17.18,5
537,17.1,5
538,17.09,5
539,16.22,5
540,15.91,5
541,16.0,5
542,15.5,5
543,14.92,5
544,15.02,5
545,14.3,5
546,14.45,5
547,14.93,5
548,15.17,5
549,15.31,5
550,15.61,5
551,15.71,5
552,15.48,5
553,15.69,5
554,15.95,5
555,16.15,5
556,16.39,5
557,16.63,5
558,16.78,5
559,16.78,5
560,16.6,5
561,17.64,5
562,17.68,5
563,17.33,5
564,16.88,5
565,17.59,5
566,17.72,5
567,17.76,5
568,18.35,5
569,18.54,5
570,17.95,5
571,17.63,5
572,17.85,5
573,17.16,5
574,17.25,5
575,17.6,5
576,16.73,5
577,16.91,5
578,17.11,5
579,17.65,5
580,18.06,5
581,18.19,5
582,19.14,5
583,19.2,5
584,20.2,5
585,19.61,5
586,19.55,5
587,20.0,5
588,20.43,5
589,20.18,5
590,18.78,5
591,18.87,5
592,18.88,5
593,18.3,5
594,17.91,5
595,17.71,5
596,18.14,5
597,17.58,5
598,17.47,5
599,17.52,5
600,17.12,5
601,17.76,5
602,16.88,5
603,16.85,5
604,17.25,5
605,17.9,5
606,18.03,5
607,17.25,5
608,17.67,5
609,17.99,5
610,17.47,5
611,17.3,5
612,16.72,5
613,16.63,5
614,16.75,5
615,15.92,5
616,16.57,5
617,17.2,5
618,17.44,5
619,17.51,5
620,17.23,5
621,17.39,5
622,17.35,5
623,17.03,5
624,16.63,5
625,16.63,5
626,17.02,5
627,16.95,5
628,16.29,5
629,16.83,5
630,17.54,5
631,17.54,5
632,17.0,5
633,17.01,5
634,17.04,5
635,17.06,5
636,17.3,5
637,17.41,5
638,17.92,4
639,18.57,4
640,18.5,4
641,18.57,4
642,18.6,4
643,18.31,4
644,17.19,4
645,17.09,4
646,16.71,4
647,16.57,4
648,16.07,4
649,16.94,4
650,17.58,4
651,18.36,4
652,18.55,4
653,17.97,4
654,16.99,4
655,17.19,4
656,17.04,4
657,17.07,4
658,17.7,4
659,17.98,4
660,18.21,4
661,17.61,4
662,18.17,4
663,17.48,4
664,17.76,4
665,18.28,4
666,18.48,4
667,18.34,4
668,18.93,4
669,18.98,4
670,19.58,4
671,19.6,4
672,19.54,4
673,18.58,4
674,17.95,4
675,17.58,4
676,16.49,4
677,15.59,4
678,14.44,4
679,14.92,4
680,15.03,4
681,14.74,4
682,15.01,4
683,14.38,4
684,15.14,4
685,15.48,4
686,15.54,4
687,16.0,4
688,15.97,4
689,16.03,4
690,16.05,4
691,15.84,4
692,15.65,4
693,15.48,4
694,15.55,4
695,15.77,4
696,15.55,4
697,15.68,4
698,16.32,4
699,15.58,4
700,15.4,4
701,16.0,4
702,15.38,4
703,15.57,4
704,16.22,4
705,16.24,4
706,16.68,4
707,17.24,4
708,17.03,4
709,16.52,4
710,16.64,4
711,17.2,4
712,16.31,4
713,16.74,4
714,16.45,4
715,16.99,3
716,17.13,3
717,17.37,3
718,17.41,3
719,17.69,3
720,17.88,3
721,17.87,3
722,18.31,3
723,18.52,3
724,18.86,3
725,18.63,3
726,18.07,3
727,17.89,3
728,17.07,3
729,16.19,3
730,15.98,3
731,16.61,3
732,16.46,3
733,16.71,3
734,16.67,3
735,17.11,3
736,16.37,3
737,15.83,3
738,16.51,3
739,16.49,3
740,15.4,3
741,15.69,3
742,16.64,3
743,16.51,3
744,16.81,3
745,16.81,3
746,17.5,3
747,17.52,3
748,16.91,3
749,17.0,3
750,16.63,3
751,15.86,3
752,14.81,3
753,14.69,3
754,14.6,3
755,13.99,3
756,13.22,3
757,13.9,3
758,13.82,3
759,14.33,3
760,14.4,3
761,14.32,3
762,14.09,3
763,14.0,3
764,13.98,3
765,15.13,3
766,15.46,3
767,15.43,3
768,15.81,3
769,15.39,3
770,14.3,3
771,14.57,3
772,14.97,3
773,15.25,3
774,16.03,3
775,15.97,3
776,16.23,3
777,15.39,3
778,15.35,3
779,15.31,3
780,15.35,3
781,15.69,3
782,15.98,3
783,15.79,3
784,15.17,3
785,15.28,3
786,15.02,3
787,14.76,3
788,14.6,3
789,14.74,3
790,14.22,3
791,14.43,3
792,14.17,3
793,13.96,3
794,13.9,3
795,14.16,3
796,14.39,3
797,15.15,3
798,15.21,3
799,15.45,3
800,15.2,3
801,15.98,3
802,15.96,3
803,15.74,3
804,15.35,3
805,15.13,3
806,14.44,3
807,14.7,3
808,15.12,3
809,15.23,3
810,15.17,3
811,14.95,3
812,15.48,3
813,16.64,3
814,17.6,3
815,17.83,3
816,17.26,3
817,17.31,3
818,17.23,3
819,16.06,3
820,15.21,3
821,14.49,3
822,13.9,3
823,14.69,3
824,15.25,3
825,14.89,3
826,15.29,3
827,16.03,3
828,15.62,3
829,15.97,3
830,15.45,3
831,15.48,3
832,15.02,3
833,15.45,3
834,14.64,3
835,13.97,3
836,14.31,3
837,15.04,3
838,15.31,3
839,15.76,3
840,15.72,3
841,16.0,3
842,15.98,3
843,16.06,3
844,16.2,3
845,16.14,3
846,15.72,3
847,14.41,3
848,13.92,3
849,14.25,3
850,14.93,3
851,15.18,3
852,15.34,3
853,15.19,3
854,15.46,3
855,15.03,3
856,15.43,3
857,15.4,3
858,15.36,3
859,16.13,3
860,15.49,3
861,15.33,3
862,14.59,3
863,14.26,3
864,14.16,3
865,14.02,3
866,13.79,3
867,14.36,3
868,15.24,3
869,14.91,3
870,15.71,3
871,15.84,3
872,15.68,3
873,14.96,3
874,15.4,3
875,15.49,3
876,14.91,3
877,14.3,3
878,14.33,3
879,14.9,3
880,15.5,3
881,15.79,3
882,15.83,3
883,15.98,3
884,15.87,3
885,15.7,3
886,15.96,3
887,15.37,3
888,15.12,3
889,15.13,3
890,15.1,3
891,14.63,3
892,15.09,3
893,14.85,3
894,14.39,3
895,14.25,3
896,14.24,3
897,14.51,3
898,14.7,3
899,14.96,3
900,15.47,3
901,15.44,3
902,14.21,3
903,14.34,3
904,14.31,3
905,14.47,3
906,14.62,3
907,14.55,3
908,14.99,3
909,14.93,3
910,15.03,3
911,15.64,3
912,16.93,3
913,16.92,3
914,15.62,3
915,15.21,3
916,15.35,3
917,15.75,3
918,15.2,3
919,15.95,3
920,16.05,3
921,15.9,3
922,15.59,3
923,15.6,3
924,15.42,3
925,16.41,3
926,15.84,3
927,15.84,3
928,15.56,3
929,15.44,3
930,15.87,3
931,15.4,3
932,15.13,3
933,15.83,3
934,16.41,3
935,16.6,3
936,16.46,3
937,16.21,3
938,16.45,3
939,16.34,3
940,16.15,3
941,16.74,3
942,16.88,3
943,16.09,3
944,17.33,3
945,16.24,3
946,15.15,3
947,15.3,3
948,15.67,3
949,15.02,3
950,15.64,3
951,16.19,3
952,16.53,3
953,16.1,3
954,17.11,3
955,16.31,3
956,16.14,3
957,16.67,3
958,16.68,3
959,16.94,3
960,16.9,3
961,15.83,3
962,14.97,3
963,14.68,3
964,14.67,3
965,14.18,3
966,13.49,3
967,13.87,3
968,13.74,3
969,14.19,3
970,13.97,3
971,13.9,3
972,14.36,3
973,14.73,3
974,14.91,3
975,14.95,3
976,15.64,3
977,15.62,3
978,16.1,3
979,15.92,3
980,15.56,3
981,15.39,3
982,15.35,3
983,16.06,3
984,16.82,3
985,17.07,3
986,16.51,3
987,16.05,3
988,15.71,3
989,15.53,3
990,15.75,3
991,15.63,3
992,16.23,3
993,15.73,3
994,15.03,3
995,14.24,3
996,14.57,3
997,15.56,3
998,15.95,3
999,15.59,3
